/* Input data */

data;

param E_n := 8;
param P_n := 3;
param D_n := 2;

param h :=
1 10
2 10
;

param KSI := 
1 30
2 90
3 10
4 40
5 10
6 30
7 10
8 10
;

# e d p
param delta :=
1 1 1   1
5 1 1   1
8 1 1   1
2 1 2   1
6 1 2   1
8 1 2   1
1 1 3   1
3 1 3   1
6 1 3   1
8 1 3   1
4 2 1   1
3 2 2   1
6 2 2   1
8 2 2   1
7 2 2   1
5 2 3   1
8 2 3   1
7 2 3   1
;




end;